\ENCODING=ISO-8859-1
\Problem name: 

Maximize
 obj: x1 + x2 + x3 + x4 + x5 + x6 + x7 + x8 + x9 + x10 + x11 + x12 + x13 + x14
      + x15 + x16 + x17 + x18 + x19 + x20 + x21 + x22 + x23 + x24 + x25 + x26
      + x27 + x28 + x29 + x30 + x31 + x32 + x33 + x34 + x35 + x36 + x37 + x38
      + x39 + x40 + x41 + x42 + x43 + x44 + x45 + x46 + x47 + x48 + x49 + x50
      + x51 + x52 + x53 + x54 + x55 + x56 + x57 + x58 + x59 + x60 + x61 + x62
      + x63 + x64 + x65 + x66 + x67 + x68 + x69 + x70 + x71 + x72 + x73 + x74
      + x75 + x76 + x77 + x78 + x79 + x80 + x81 + x82 + x83 + x84 + x85 + x86
      + x87 + x88 + x89 + x90 + x91 + x92 + x93 + x94 + x95 + x96 + x97 + x98
      + x99 + x100 + x101 + x102 + x103 + x104 + x105 + x106 + x107 + x108
      + x109 + x110 + x111 + x112 + x113 + x114 + x115 + x116 + x117 + x118
      + x119 + x120 + x121 + x122 + x123 + x124 + x125 + x126 + x127 + x128
      + x129 + x130 + x131 + x132 + x133 + x134 + x135 + x136 + x137 + x138
      + x139 + x140 + x141 + x142 + x143 + x144 + x145 + x146 + x147 + x148
      + x149 + x150
Subject To
 clq1:   x10 + x11 + x19 + x20 + x21 + x25 + x35 + x41 + x46 + x55 + x58 + x62
         + x64 + x65 + x70 + x74 + x78 + x83 + x85 + x96 + x97 + x103 + x105
         + x106 + x113 + x118 + x126 + x129 + x130 <= 1
 clq2:   x2 + x3 + x7 + x13 + x23 + x26 + x34 + x38 + x45 + x49 + x53 + x54
         + x64 + x66 + x67 + x84 + x87 + x89 + x92 + x93 + x100 + x125 + x127
         + x128 + x139 + x148 <= 1
 clq3:   x7 + x17 + x26 + x45 + x51 + x59 + x60 + x71 + x78 + x79 + x88 + x102
         + x103 + x106 + x110 + x112 + x113 + x115 + x116 + x120 + x130 + x131
         + x139 + x140 + x142 <= 1
 clq4:   x3 + x4 + x9 + x10 + x25 + x28 + x32 + x33 + x39 + x41 + x43 + x56
         + x60 + x61 + x75 + x79 + x83 + x90 + x111 + x113 + x119 + x120 + x123
         + x132 + x134 + x141 + x143 <= 1
 clq5:   x2 + x9 + x10 + x15 + x22 + x23 + x29 + x34 + x39 + x43 + x45 + x48
         + x51 + x52 + x65 + x70 + x77 + x82 + x89 + x98 + x100 + x109 + x117
         + x118 + x121 + x123 + x144 <= 1
 clq6:   x5 + x6 + x9 + x22 + x24 + x29 + x33 + x34 + x49 + x52 + x53 + x65
         + x71 + x81 + x82 + x84 + x86 + x89 + x98 + x100 + x118 + x137 + x138
         + x142 + x144 <= 1
 clq7:   x2 + x4 + x7 + x13 + x17 + x22 + x29 + x37 + x45 + x54 + x58 + x59
         + x64 + x66 + x70 + x75 + x84 + x88 + x93 + x99 + x101 + x102 + x109
         + x115 + x117 + x128 + x139 + x140 + x142 <= 1
 clq8:   x2 + x4 + x17 + x19 + x46 + x49 + x53 + x56 + x58 + x60 + x64 + x67
         + x75 + x81 + x84 + x92 + x96 + x97 + x101 + x102 + x105 + x135 + x140
         + x145 + x148 <= 1
 clq9:   x7 + x15 + x29 + x35 + x37 + x41 + x50 + x51 + x56 + x65 + x68 + x74
         + x77 + x89 + x95 + x98 + x100 + x108 + x110 + x111 + x112 + x113
         + x121 + x131 + x142 <= 1
 clq10:  x13 + x15 + x22 + x25 + x28 + x32 + x34 + x39 + x41 + x43 + x49 + x63
         + x72 + x75 + x82 + x89 + x90 + x91 + x93 + x95 + x109 + x123 + x129
         + x143 <= 1
 clq11:  x3 + x6 + x8 + x14 + x21 + x25 + x26 + x28 + x32 + x41 + x43 + x49
         + x60 + x63 + x69 + x75 + x85 + x91 + x96 + x103 + x108 + x120 + x134
         + x137 + x139 <= 1
 clq12:  x1 + x2 + x8 + x9 + x24 + x33 + x44 + x45 + x51 + x81 + x82 + x86
         + x87 + x98 + x107 + x108 + x129 + x130 + x142 + x143 + x144 + x145
         + x148 + x150 <= 1
 clq13:  x1 + x11 + x16 + x20 + x26 + x31 + x43 + x46 + x70 + x83 + x87 + x96
         + x109 + x112 + x113 + x121 + x125 + x135 + x136 + x139 + x140 + x148
         <= 1
 clq14:  x4 + x9 + x17 + x18 + x23 + x34 + x37 + x40 + x49 + x51 + x58 + x63
         + x66 + x74 + x78 + x84 + x91 + x99 + x102 + x103 + x105 + x107 + x109
         + x124 + x129 + x134 + x138 + x144 + x146 + x148 <= 1
 clq15:  x3 + x6 + x13 + x14 + x18 + x21 + x23 + x27 + x30 + x31 + x40 + x42
         + x61 + x63 + x64 + x67 + x72 + x82 + x85 + x89 + x103 + x104 + x110
         + x114 + x115 + x124 + x129 + x133 + x140 + x150 <= 1
 clq16:  x9 + x10 + x14 + x17 + x28 + x30 + x40 + x42 + x44 + x52 + x56 + x60
         + x62 + x67 + x78 + x82 + x86 + x88 + x89 + x92 + x94 + x95 + x108
         + x111 + x113 + x144 + x147 <= 1
 clq17:  x1 + x3 + x4 + x11 + x34 + x76 + x77 + x101 + x103 + x107 + x110
         + x123 + x124 + x129 + x130 + x132 + x133 + x134 + x139 + x140 + x141
         + x146 + x148 <= 1
 clq18:  x3 + x19 + x24 + x30 + x34 + x37 + x38 + x41 + x59 + x75 + x76 + x85
         + x86 + x91 + x96 + x102 + x103 + x105 + x108 + x111 + x112 + x127
         + x128 + x129 + x134 + x144 + x148 <= 1
 clq19:  x3 + x19 + x20 + x27 + x37 + x53 + x54 + x74 + x76 + x77 + x97 + x98
         + x100 + x101 + x111 + x125 + x128 + x131 + x137 + x138 + x146 + x148
         + x150 <= 1
 clq20:  x7 + x26 + x35 + x37 + x45 + x51 + x55 + x58 + x65 + x66 + x70 + x88
         + x95 + x96 + x106 + x112 + x113 + x120 + x121 + x123 + x124 + x128
         + x131 + x144 + x147 <= 1
 clq21:  x5 + x9 + x10 + x17 + x18 + x24 + x31 + x42 + x49 + x52 + x55 + x65
         + x71 + x85 + x86 + x103 + x105 + x106 + x121 + x122 + x138 + x142
         + x144 + x147 <= 1
 clq22:  x3 + x8 + x9 + x10 + x19 + x24 + x33 + x36 + x37 + x38 + x45 + x48
         + x65 + x74 + x82 + x84 + x86 + x100 + x107 + x108 + x113 + x114
         + x123 + x124 + x127 + x149 + x150 <= 1
 clq23:  x5 + x9 + x27 + x32 + x33 + x34 + x38 + x39 + x49 + x63 + x69 + x73
         + x75 + x76 + x81 + x90 + x105 + x112 + x113 + x119 + x121 + x123
         + x128 + x129 + x140 + x148 <= 1
 clq24:  x3 + x4 + x11 + x18 + x20 + x23 + x34 + x45 + x53 + x59 + x64 + x75
         + x77 + x83 + x84 + x87 + x96 + x101 + x103 + x105 + x107 + x109
         + x113 + x122 + x132 + x140 + x142 + x148 + x150 <= 1
 clq25:  x13 + x18 + x34 + x42 + x44 + x47 + x49 + x54 + x55 + x64 + x66 + x73
         + x75 + x85 + x87 + x89 + x93 + x101 + x103 + x117 + x129 + x133
         + x138 + x142 + x145 + x148 <= 1
 clq26:  x6 + x27 + x28 + x37 + x69 + x72 + x73 + x80 + x82 + x88 + x89 + x92
         + x94 + x95 + x97 + x98 + x107 + x115 + x125 + x126 + x133 + x137
         + x138 <= 1
 clq27:  x5 + x9 + x31 + x33 + x38 + x60 + x61 + x62 + x67 + x71 + x78 + x80
         + x82 + x83 + x85 + x90 + x97 + x105 + x108 + x112 + x114 + x127
         + x146 + x147 + x148 <= 1
 clq28:  x3 + x9 + x15 + x16 + x19 + x23 + x27 + x30 + x31 + x33 + x34 + x38
         + x39 + x43 + x44 + x60 + x63 + x65 + x69 + x85 + x89 + x93 + x108
         + x114 + x137 + x146 + x148 <= 1
 clq29:  x4 + x8 + x10 + x12 + x18 + x19 + x25 + x43 + x44 + x46 + x59 + x61
         + x63 + x64 + x70 + x71 + x78 + x85 + x96 + x103 + x104 + x113 + x117
         + x127 + x133 + x134 + x141 <= 1
 clq30:  x18 + x20 + x21 + x26 + x32 + x35 + x44 + x48 + x51 + x62 + x65 + x67
         + x74 + x77 + x79 + x91 + x94 + x106 + x116 + x122 + x132 + x133
         + x136 + x137 + x140 + x150 <= 1
 clq31:  x4 + x7 + x12 + x14 + x21 + x29 + x36 + x39 + x45 + x47 + x50 + x68
         + x77 + x94 + x101 + x113 + x117 + x118 + x124 + x125 + x130 + x131
         + x132 + x133 + x134 + x140 <= 1
 clq32:  x6 + x11 + x22 + x36 + x43 + x45 + x52 + x53 + x69 + x80 + x82 + x83
         + x99 + x100 + x101 + x107 + x110 + x113 + x117 + x119 + x126 + x132
         + x141 + x143 <= 1
 clq33:  x3 + x4 + x9 + x15 + x19 + x27 + x33 + x36 + x37 + x41 + x44 + x46
         + x47 + x49 + x61 + x74 + x76 + x86 + x97 + x108 + x112 + x113 + x123
         + x127 + x129 + x134 + x143 + x148 <= 1
 clq34:  x11 + x16 + x17 + x20 + x31 + x38 + x40 + x52 + x53 + x59 + x62 + x63
         + x64 + x65 + x71 + x80 + x86 + x88 + x92 + x102 + x105 + x106 + x109
         + x113 + x119 + x122 + x147 <= 1
 clq35:  x9 + x16 + x19 + x24 + x30 + x34 + x47 + x49 + x51 + x55 + x59 + x62
         + x64 + x66 + x72 + x75 + x76 + x81 + x87 + x92 + x98 + x109 + x113
         + x116 + x119 + x129 + x143 + x148 <= 1
 clq36:  x3 + x4 + x7 + x17 + x19 + x27 + x56 + x61 + x64 + x67 + x75 + x77
         + x96 + x97 + x103 + x108 + x112 + x114 + x116 + x128 + x130 + x131
         + x134 + x138 + x141 + x148 <= 1
 clq37:  x3 + x5 + x8 + x18 + x27 + x31 + x32 + x36 + x46 + x61 + x72 + x87
         + x96 + x103 + x104 + x111 + x113 + x114 + x131 + x135 + x136 + x137
         + x143 + x148 + x150 <= 1
 clq38:  x9 + x10 + x11 + x14 + x25 + x28 + x39 + x42 + x43 + x52 + x56 + x69
         + x73 + x82 + x88 + x98 + x101 + x102 + x103 + x107 + x119 + x120
         + x124 + x132 + x138 + x142 <= 1
 clq39:  x4 + x6 + x7 + x12 + x15 + x19 + x21 + x41 + x47 + x50 + x53 + x64
         + x67 + x68 + x72 + x79 + x88 + x93 + x97 + x101 + x110 + x113 + x116
         + x125 + x126 + x130 + x131 + x149 <= 1
 clq40:  x3 + x24 + x33 + x47 + x49 + x53 + x76 + x79 + x90 + x109 + x112
         + x116 + x118 + x123 + x125 + x126 + x128 + x132 + x140 + x146 + x147
         <= 1
 clq41:  x3 + x16 + x18 + x21 + x24 + x31 + x40 + x43 + x49 + x61 + x64 + x71
         + x72 + x73 + x87 + x89 + x96 + x103 + x104 + x109 + x129 + x135
         + x138 + x147 <= 1
 clq42:  x3 + x7 + x13 + x26 + x27 + x34 + x53 + x60 + x66 + x67 + x71 + x77
         + x90 + x92 + x95 + x104 + x116 + x122 + x125 + x133 + x140 + x141
         + x145 + x147 + x148 <= 1
 clq43:  x2 + x3 + x5 + x15 + x18 + x19 + x21 + x27 + x34 + x39 + x41 + x46
         + x49 + x56 + x63 + x75 + x82 + x84 + x89 + x92 + x96 + x101 + x118
         + x129 + x137 + x143 + x145 <= 1
 clq44:  x9 + x10 + x22 + x35 + x39 + x42 + x43 + x45 + x46 + x52 + x57 + x62
         + x69 + x78 + x82 + x83 + x85 + x95 + x99 + x113 + x117 + x126 + x129
         + x132 + x133 + x142 + x145 <= 1
 clq45:  x2 + x3 + x9 + x15 + x21 + x25 + x28 + x40 + x42 + x47 + x49 + x60
         + x63 + x67 + x69 + x72 + x84 + x91 + x92 + x97 + x106 + x107 + x108
         + x119 + x126 <= 1
 clq46:  x1 + x8 + x9 + x19 + x22 + x24 + x31 + x36 + x51 + x59 + x61 + x86
         + x87 + x104 + x112 + x113 + x119 + x129 + x130 + x135 + x143 + x144
         + x149 + x150 <= 1
 clq47:  x4 + x5 + x19 + x34 + x36 + x46 + x49 + x53 + x59 + x75 + x81 + x82
         + x83 + x86 + x92 + x96 + x97 + x101 + x112 + x113 + x127 + x128
         + x143 + x148 <= 1
 clq48:  x2 + x14 + x17 + x26 + x37 + x44 + x54 + x58 + x63 + x69 + x80 + x81
         + x82 + x88 + x89 + x90 + x99 + x103 + x108 + x114 + x117 + x128
         + x140 + x147 <= 1
 clq49:  x6 + x33 + x34 + x37 + x38 + x44 + x58 + x63 + x69 + x70 + x75 + x81
         + x82 + x85 + x91 + x93 + x96 + x97 + x112 + x114 + x115 + x120 + x130
         + x138 + x141 + x150 <= 1
 clq50:  x8 + x11 + x12 + x13 + x14 + x27 + x46 + x47 + x54 + x68 + x73 + x80
         + x81 + x86 + x88 + x101 + x103 + x110 + x111 + x114 + x120 + x123
         + x124 + x133 <= 1
 clq51:  x6 + x10 + x11 + x17 + x21 + x25 + x31 + x32 + x34 + x38 + x55 + x64
         + x70 + x71 + x74 + x83 + x92 + x96 + x97 + x113 + x115 + x116 + x121
         + x122 + x133 + x134 + x141 <= 1
 clq52:  x1 + x4 + x6 + x14 + x17 + x27 + x28 + x33 + x47 + x53 + x61 + x68
         + x76 + x79 + x88 + x90 + x97 + x110 + x112 + x113 + x116 + x119
         + x120 + x130 + x131 + x140 + x149 <= 1
 clq53:  x15 + x18 + x25 + x30 + x32 + x34 + x39 + x41 + x50 + x51 + x52 + x55
         + x62 + x72 + x76 + x79 + x92 + x104 + x111 + x113 + x116 + x118
         + x129 + x134 + x136 + x137 + x143 + x149 <= 1
 clq54:  x2 + x5 + x6 + x8 + x9 + x10 + x17 + x28 + x32 + x33 + x42 + x45 + x48
         + x51 + x52 + x54 + x60 + x67 + x69 + x82 + x83 + x92 + x100 + x108
         + x119 + x121 + x139 + x144 <= 1
 clq55:  x3 + x10 + x17 + x20 + x24 + x32 + x38 + x43 + x59 + x70 + x77 + x90
         + x91 + x93 + x94 + x102 + x109 + x119 + x129 + x134 + x135 + x139
         + x146 + x147 <= 1
 clq56:  x10 + x15 + x20 + x21 + x24 + x25 + x29 + x32 + x34 + x37 + x38 + x44
         + x45 + x48 + x50 + x62 + x65 + x70 + x71 + x74 + x77 + x82 + x100
         + x114 + x133 + x146 + x149 <= 1
 clq57:  x25 + x28 + x32 + x33 + x34 + x43 + x45 + x49 + x51 + x60 + x69 + x71
         + x82 + x83 + x86 + x87 + x96 + x107 + x108 + x113 + x120 + x137
         + x140 + x142 + x145 <= 1
 clq58:  x3 + x4 + x7 + x9 + x19 + x25 + x34 + x37 + x38 + x63 + x64 + x65
         + x66 + x70 + x73 + x74 + x77 + x93 + x103 + x113 + x118 + x124 + x129
         + x130 + x133 + x134 + x140 + x149 <= 1
 clq59:  x4 + x9 + x10 + x12 + x14 + x25 + x32 + x33 + x34 + x39 + x46 + x63
         + x70 + x79 + x82 + x85 + x102 + x114 + x115 + x117 + x120 + x123
         + x128 + x139 + x146 <= 1
 clq60:  x1 + x3 + x9 + x18 + x24 + x25 + x30 + x31 + x34 + x44 + x47 + x48
         + x55 + x59 + x66 + x78 + x79 + x90 + x92 + x101 + x113 + x116 + x132
         + x133 + x140 + x141 + x145 + x149 <= 1
 clq61:  x3 + x17 + x18 + x20 + x24 + x31 + x33 + x34 + x42 + x55 + x70 + x74
         + x78 + x85 + x86 + x90 + x93 + x105 + x111 + x114 + x129 + x134
         + x136 + x138 + x141 + x148 <= 1
 clq62:  x3 + x4 + x14 + x18 + x20 + x23 + x27 + x33 + x43 + x44 + x61 + x63
         + x71 + x74 + x82 + x85 + x86 + x90 + x108 + x120 + x137 + x138 + x145
         <= 1
 clq63:  x14 + x15 + x26 + x28 + x32 + x35 + x36 + x37 + x41 + x52 + x53 + x60
         + x69 + x82 + x86 + x91 + x95 + x96 + x115 + x120 + x121 + x123 + x127
         + x144 + x147 <= 1
 clq64:  x1 + x9 + x15 + x16 + x19 + x27 + x30 + x31 + x33 + x34 + x43 + x49
         + x51 + x62 + x65 + x67 + x69 + x87 + x100 + x108 + x112 + x119 + x127
         + x143 + x144 + x146 + x148 <= 1
 clq65:  x3 + x26 + x27 + x32 + x34 + x38 + x43 + x44 + x60 + x63 + x67 + x69
         + x77 + x82 + x91 + x94 + x96 + x104 + x107 + x125 + x133 + x136
         + x137 + x140 + x141 + x145 + x148 <= 1
 clq66:  x3 + x5 + x13 + x18 + x33 + x47 + x50 + x55 + x73 + x75 + x84 + x86
         + x87 + x102 + x111 + x114 + x115 + x120 + x124 + x128 + x130 + x131
         + x138 + x142 <= 1
 clq67:  x3 + x5 + x8 + x16 + x18 + x19 + x24 + x33 + x56 + x63 + x71 + x73
         + x74 + x84 + x105 + x125 + x128 + x129 + x130 + x137 + x138 + x144
         + x146 + x148 + x150 <= 1
 clq68:  x2 + x10 + x23 + x34 + x38 + x39 + x40 + x58 + x66 + x69 + x73 + x78
         + x84 + x91 + x98 + x105 + x107 + x115 + x123 + x124 + x125 + x127
         + x129 + x134 + x139 + x144 + x146 <= 1
 clq69:  x1 + x4 + x13 + x19 + x22 + x27 + x36 + x37 + x45 + x47 + x53 + x54
         + x57 + x68 + x77 + x81 + x84 + x93 + x98 + x101 + x110 + x123 + x125
         + x131 + x135 + x149 + x150 <= 1
 clq70:  x3 + x9 + x28 + x36 + x43 + x53 + x60 + x66 + x68 + x75 + x79 + x80
         + x90 + x93 + x99 + x101 + x103 + x113 + x114 + x120 + x123 + x133
         + x143 <= 1
 clq71:  x4 + x17 + x34 + x58 + x65 + x79 + x83 + x91 + x92 + x93 + x97 + x98
         + x101 + x110 + x111 + x112 + x120 + x128 + x134 + x138 + x147 <= 1
 clq72:  x1 + x3 + x4 + x31 + x34 + x36 + x45 + x46 + x49 + x53 + x59 + x82
         + x83 + x84 + x87 + x92 + x96 + x101 + x113 + x127 + x132 + x139
         + x142 + x143 + x145 + x148 <= 1
 clq73:  x11 + x26 + x32 + x35 + x70 + x74 + x76 + x81 + x85 + x86 + x90 + x95
         + x97 + x111 + x112 + x113 + x120 + x121 + x123 + x127 + x128 + x131
         + x134 + x141 <= 1
 clq74:  x2 + x9 + x14 + x17 + x23 + x29 + x34 + x37 + x52 + x55 + x56 + x58
         + x62 + x65 + x66 + x70 + x74 + x80 + x81 + x92 + x101 + x102 + x105
         + x109 + x114 + x124 + x134 + x136 + x149 <= 1
 clq75:  x5 + x9 + x10 + x32 + x34 + x40 + x41 + x44 + x46 + x52 + x54 + x56
         + x57 + x63 + x69 + x73 + x80 + x82 + x86 + x95 + x102 + x104 + x113
         + x115 + x123 + x127 + x128 + x143 + x144 <= 1
 clq76:  x7 + x15 + x23 + x30 + x35 + x50 + x55 + x56 + x62 + x66 + x68 + x70
         + x72 + x74 + x79 + x94 + x99 + x113 + x116 + x117 + x118 + x126
         + x129 + x133 + x134 + x136 + x142 <= 1
 clq77:  x4 + x7 + x12 + x13 + x17 + x27 + x44 + x56 + x64 + x66 + x67 + x71
         + x88 + x96 + x101 + x103 + x115 + x116 + x117 + x118 + x122 + x126
         + x128 + x130 + x138 + x141 <= 1
 clq78:  x18 + x26 + x32 + x37 + x46 + x57 + x58 + x59 + x70 + x72 + x73 + x74
         + x92 + x94 + x95 + x105 + x106 + x109 + x113 + x115 + x125 + x135
         + x136 + x140 + x150 <= 1
 clq79:  x4 + x10 + x11 + x18 + x25 + x35 + x39 + x45 + x66 + x77 + x83 + x93
         + x95 + x99 + x105 + x106 + x108 + x116 + x118 + x123 + x124 + x125
         + x128 + x129 + x132 + x141 + x146 <= 1
 clq80:  x12 + x14 + x18 + x24 + x34 + x70 + x72 + x73 + x76 + x87 + x94 + x99
         + x101 + x105 + x116 + x118 + x124 + x125 + x128 + x132 + x137 + x140
         + x146 + x147 + x150 <= 1
 clq81:  x2 + x5 + x6 + x7 + x8 + x13 + x19 + x21 + x41 + x42 + x47 + x48 + x50
         + x51 + x54 + x55 + x68 + x86 + x98 + x104 + x111 + x119 + x124 + x131
         + x135 + x149 <= 1
 clq82:  x8 + x14 + x26 + x27 + x32 + x43 + x44 + x45 + x46 + x49 + x65 + x69
         + x82 + x85 + x95 + x100 + x108 + x112 + x117 + x120 + x121 + x123
         + x127 + x128 + x144 + x146 <= 1
 clq83:  x1 + x22 + x28 + x37 + x45 + x51 + x52 + x55 + x57 + x59 + x79 + x84
         + x94 + x105 + x106 + x110 + x113 + x115 + x122 + x130 + x131 + x132
         + x142 + x150 <= 1
 clq84:  x9 + x49 + x54 + x55 + x81 + x90 + x93 + x97 + x99 + x102 + x103
         + x108 + x116 + x119 + x126 + x128 + x129 + x134 + x137 + x138 + x147
         <= 1
 clq85:  x1 + x2 + x4 + x17 + x45 + x46 + x64 + x77 + x83 + x84 + x92 + x96
         + x101 + x105 + x109 + x121 + x122 + x124 + x135 + x139 + x140 + x141
         + x145 + x148 <= 1
 clq86:  x5 + x7 + x16 + x22 + x24 + x31 + x42 + x50 + x51 + x55 + x66 + x72
         + x87 + x88 + x89 + x99 + x104 + x119 + x121 + x138 + x144 + x147 <= 1
 clq87:  x6 + x13 + x22 + x29 + x30 + x33 + x34 + x36 + x37 + x41 + x42 + x47
         + x49 + x51 + x62 + x75 + x84 + x91 + x98 + x102 + x132 + x142 + x143
         + x148 <= 1
 clq88:  x2 + x4 + x7 + x13 + x18 + x35 + x39 + x41 + x47 + x61 + x63 + x70
         + x77 + x79 + x84 + x88 + x90 + x103 + x118 + x122 + x124 + x128
         + x130 + x131 + x142 <= 1
 clq89:  x20 + x21 + x28 + x30 + x35 + x41 + x54 + x57 + x67 + x68 + x74 + x90
         + x93 + x95 + x97 + x113 + x116 + x126 + x131 + x136 + x137 + x143
         + x145 + x149 <= 1
 clq90:  x1 + x4 + x20 + x22 + x23 + x31 + x36 + x38 + x53 + x58 + x59 + x61
         + x66 + x79 + x83 + x87 + x90 + x104 + x112 + x113 + x130 + x132
         + x140 + x149 <= 1
 clq91:  x1 + x16 + x19 + x20 + x24 + x29 + x30 + x33 + x36 + x37 + x44 + x48
         + x51 + x92 + x100 + x106 + x108 + x112 + x113 + x118 + x132 + x141
         + x150 <= 1
 clq92:  x4 + x5 + x6 + x13 + x14 + x17 + x23 + x34 + x36 + x45 + x50 + x54
         + x75 + x81 + x82 + x86 + x99 + x101 + x102 + x107 + x114 + x115
         + x120 + x124 + x133 + x140 + x142 + x149 <= 1
 clq93:  x1 + x3 + x8 + x16 + x18 + x19 + x25 + x26 + x28 + x30 + x47 + x49
         + x59 + x61 + x66 + x72 + x79 + x83 + x87 + x103 + x104 + x113 + x116
         + x122 + x133 + x140 <= 1
 clq94:  x9 + x15 + x16 + x19 + x36 + x39 + x41 + x42 + x48 + x51 + x52 + x59
         + x62 + x68 + x76 + x77 + x91 + x92 + x95 + x98 + x106 + x108 + x135
         + x136 + x144 + x145 + x150 <= 1
 clq95:  x1 + x3 + x11 + x14 + x28 + x34 + x42 + x50 + x54 + x56 + x57 + x69
         + x73 + x78 + x92 + x94 + x97 + x98 + x101 + x107 + x110 + x113 + x115
         + x125 + x127 + x129 + x133 + x134 + x136 + x139 <= 1
 clq96:  x8 + x10 + x30 + x35 + x38 + x40 + x41 + x43 + x52 + x57 + x64 + x67
         + x74 + x80 + x83 + x85 + x86 + x100 + x103 + x110 + x113 + x122
         + x124 + x126 + x127 + x135 + x141 <= 1
 clq97:  x2 + x7 + x21 + x26 + x35 + x47 + x48 + x53 + x54 + x60 + x67 + x68
         + x77 + x90 + x97 + x103 + x104 + x118 + x119 + x122 + x131 + x135
         + x140 + x147 + x149 <= 1
 clq98:  x7 + x9 + x16 + x29 + x35 + x48 + x51 + x54 + x55 + x56 + x57 + x68
         + x74 + x77 + x84 + x89 + x94 + x95 + x99 + x107 + x113 + x117 + x123
         + x144 + x145 + x150 <= 1
 clq99:  x26 + x29 + x30 + x32 + x34 + x44 + x49 + x54 + x58 + x60 + x67 + x81
         + x82 + x89 + x90 + x92 + x93 + x95 + x97 + x104 + x113 + x118 + x125
         + x137 + x140 + x145 + x147 <= 1
 clq100: x2 + x3 + x5 + x8 + x16 + x18 + x19 + x24 + x33 + x41 + x44 + x46
         + x61 + x63 + x73 + x74 + x76 + x86 + x96 + x104 + x128 + x129 + x130
         + x137 + x143 + x144 + x148 + x150 <= 1
 clq101: x1 + x6 + x9 + x11 + x14 + x15 + x23 + x27 + x33 + x42 + x53 + x68
         + x76 + x98 + x116 + x119 + x120 + x121 + x130 + x131 + x144 + x146
         + x149 <= 1
 clq102: x12 + x13 + x15 + x22 + x27 + x31 + x43 + x46 + x53 + x56 + x60 + x61
         + x62 + x64 + x71 + x72 + x79 + x80 + x82 + x88 + x89 + x100 + x104
         + x110 + x133 <= 1
 clq103: x2 + x5 + x7 + x9 + x25 + x34 + x39 + x40 + x41 + x49 + x51 + x59
         + x69 + x75 + x84 + x89 + x92 + x98 + x100 + x108 + x118 + x119 + x128
         + x132 + x139 + x142 + x143 <= 1
 clq104: x6 + x10 + x12 + x24 + x25 + x34 + x40 + x41 + x42 + x76 + x91 + x99
         + x105 + x110 + x122 + x124 + x125 + x132 + x139 + x141 + x149 + x150
         <= 1
 clq105: x1 + x2 + x14 + x16 + x20 + x33 + x52 + x53 + x58 + x63 + x65 + x67
         + x68 + x69 + x78 + x80 + x81 + x88 + x105 + x106 + x107 + x114 + x123
         + x147 <= 1
 clq106: x8 + x9 + x33 + x37 + x44 + x46 + x49 + x63 + x69 + x75 + x76 + x78
         + x85 + x108 + x112 + x117 + x121 + x123 + x126 + x127 + x129 + x134
         + x146 <= 1
 clq107: x1 + x3 + x4 + x9 + x37 + x73 + x76 + x77 + x97 + x98 + x101 + x103
         + x107 + x109 + x112 + x119 + x123 + x127 + x129 + x134 + x135 + x139
         + x143 + x146 + x148 <= 1
 clq108: x10 + x22 + x34 + x39 + x45 + x46 + x49 + x52 + x54 + x58 + x83 + x84
         + x94 + x99 + x101 + x109 + x113 + x117 + x118 + x123 + x125 + x128
         + x129 + x134 + x139 <= 1
 clq109: x11 + x16 + x19 + x20 + x25 + x28 + x33 + x35 + x38 + x48 + x52 + x61
         + x68 + x74 + x84 + x96 + x105 + x107 + x108 + x119 + x130 + x132
         + x134 + x138 <= 1
 clq110: x1 + x9 + x15 + x18 + x30 + x31 + x43 + x46 + x52 + x59 + x62 + x70
         + x83 + x86 + x94 + x95 + x98 + x109 + x113 + x127 + x129 + x134
         + x135 + x136 + x142 + x144 <= 1
 clq111: x8 + x16 + x23 + x31 + x35 + x44 + x50 + x63 + x66 + x69 + x81 + x87
         + x93 + x95 + x99 + x108 + x121 + x125 + x129 + x136 + x138 + x144
         + x145 <= 1
 clq112: x1 + x6 + x8 + x27 + x36 + x37 + x46 + x76 + x81 + x86 + x88 + x100
         + x101 + x110 + x112 + x113 + x121 + x124 + x125 + x127 + x131 + x135
         + x141 + x148 <= 1
 clq113: x11 + x13 + x14 + x15 + x25 + x26 + x29 + x32 + x34 + x43 + x50 + x62
         + x66 + x70 + x72 + x75 + x80 + x87 + x89 + x100 + x109 + x114 + x117
         + x133 + x146 <= 1
 clq114: x4 + x12 + x16 + x17 + x20 + x23 + x29 + x34 + x38 + x40 + x44 + x48
         + x65 + x66 + x67 + x71 + x77 + x81 + x91 + x96 + x102 + x103 + x108
         + x114 + x128 + x130 + x134 + x138 + x148 <= 1
 clq115: x2 + x7 + x13 + x15 + x22 + x37 + x41 + x48 + x53 + x56 + x60 + x68
         + x72 + x79 + x84 + x89 + x99 + x100 + x101 + x118 + x119 + x123
         + x126 <= 1
 clq116: x9 + x21 + x39 + x44 + x54 + x56 + x57 + x58 + x60 + x63 + x69 + x73
         + x88 + x94 + x95 + x102 + x106 + x107 + x115 + x126 + x136 + x137
         + x138 + x146 <= 1
 clq117: x3 + x4 + x9 + x10 + x29 + x32 + x43 + x45 + x48 + x57 + x67 + x71
         + x77 + x102 + x103 + x114 + x128 + x131 + x134 + x139 + x146 <= 1
 clq118: x11 + x13 + x21 + x25 + x31 + x32 + x38 + x39 + x60 + x61 + x62 + x72
         + x73 + x82 + x90 + x103 + x109 + x114 + x116 + x133 + x136 + x143
         + x146 + x149 <= 1
 clq119: x6 + x12 + x17 + x22 + x24 + x33 + x38 + x53 + x63 + x68 + x71 + x76
         + x81 + x86 + x88 + x91 + x96 + x105 + x119 + x121 + x130 + x138
         + x144 + x148 <= 1
 clq120: x6 + x8 + x19 + x37 + x48 + x50 + x51 + x52 + x55 + x68 + x74 + x76
         + x86 + x91 + x92 + x94 + x95 + x98 + x107 + x108 + x111 + x124 + x134
         + x135 + x137 + x138 + x144 <= 1
 clq121: x2 + x7 + x9 + x21 + x24 + x25 + x35 + x40 + x42 + x47 + x51 + x61
         + x68 + x72 + x74 + x78 + x103 + x104 + x107 + x111 + x124 + x129
         + x130 + x132 + x143 + x149 + x150 <= 1
 clq122: x3 + x9 + x10 + x11 + x17 + x19 + x27 + x33 + x39 + x56 + x61 + x75
         + x89 + x100 + x108 + x111 + x116 + x118 + x119 + x124 + x128 + x131
         + x138 + x141 + x144 + x146 <= 1
 clq123: x3 + x4 + x13 + x15 + x21 + x27 + x39 + x40 + x41 + x47 + x60 + x61
         + x63 + x75 + x77 + x79 + x85 + x118 + x122 + x126 + x130 + x131
         + x145 + x149 <= 1
 clq124: x4 + x5 + x8 + x9 + x16 + x19 + x22 + x27 + x28 + x33 + x36 + x41
         + x51 + x68 + x75 + x79 + x84 + x87 + x98 + x113 + x130 + x131 + x137
         + x143 + x144 + x145 + x150 <= 1
 clq125: x7 + x8 + x22 + x31 + x35 + x36 + x42 + x45 + x51 + x58 + x83 + x87
         + x94 + x98 + x110 + x113 + x127 + x129 + x135 + x139 + x142 + x145
         + x147 + x148 + x150 <= 1
 clq126: x8 + x9 + x28 + x35 + x36 + x41 + x43 + x51 + x52 + x79 + x80 + x82
         + x83 + x99 + x103 + x113 + x120 + x124 + x136 + x137 + x139 + x141
         + x143 + x144 + x145 <= 1
 clq127: x10 + x12 + x24 + x44 + x47 + x57 + x73 + x80 + x81 + x85 + x86 + x87
         + x88 + x89 + x93 + x101 + x103 + x110 + x111 + x126 + x128 + x138
         <= 1
 clq128: x4 + x9 + x10 + x21 + x25 + x28 + x34 + x38 + x48 + x60 + x70 + x71
         + x73 + x76 + x87 + x90 + x103 + x104 + x116 + x119 + x120 + x121
         + x122 + x130 + x138 <= 1
 clq129: x2 + x20 + x24 + x37 + x45 + x50 + x55 + x57 + x59 + x62 + x64 + x68
         + x73 + x75 + x78 + x80 + x84 + x88 + x93 + x99 + x101 + x132 + x143
         + x149 <= 1
 clq130: x5 + x9 + x16 + x39 + x40 + x48 + x51 + x52 + x54 + x56 + x77 + x83
         + x84 + x94 + x100 + x107 + x109 + x113 + x119 + x122 + x123 + x127
         + x135 + x139 + x144 + x150 <= 1
 clq131: x6 + x7 + x13 + x15 + x18 + x19 + x26 + x27 + x36 + x37 + x46 + x47
         + x49 + x53 + x61 + x62 + x71 + x84 + x86 + x120 + x122 + x127 <= 1
 clq132: x3 + x5 + x7 + x9 + x15 + x27 + x34 + x36 + x39 + x41 + x47 + x49
         + x60 + x69 + x75 + x90 + x101 + x112 + x113 + x119 + x120 + x123
         + x127 + x143 <= 1
 clq133: x9 + x10 + x11 + x25 + x28 + x34 + x39 + x41 + x52 + x56 + x62 + x73
         + x82 + x99 + x101 + x102 + x103 + x109 + x113 + x115 + x116 + x119
         + x124 + x129 + x132 + x139 + x142 + x143 + x149 <= 1
 clq134: x11 + x20 + x39 + x45 + x50 + x52 + x55 + x57 + x62 + x65 + x70 + x73
         + x78 + x92 + x94 + x95 + x98 + x102 + x109 + x113 + x116 + x126
         + x129 + x132 + x133 + x134 + x136 + x142 + x149 <= 1
 clq135: x4 + x11 + x12 + x13 + x17 + x29 + x32 + x38 + x40 + x53 + x59 + x66
         + x71 + x91 + x93 + x103 + x105 + x106 + x109 + x115 + x128 + x139
         + x141 + x144 + x146 + x147 <= 1
 clq136: x6 + x8 + x9 + x10 + x11 + x14 + x17 + x18 + x23 + x40 + x42 + x58
         + x75 + x82 + x83 + x85 + x91 + x99 + x100 + x103 + x108 + x114 + x120
         + x124 + x138 + x146 <= 1
 clq137: x1 + x3 + x6 + x13 + x15 + x27 + x28 + x30 + x36 + x37 + x40 + x42
         + x66 + x68 + x84 + x93 + x98 + x100 + x108 + x119 + x120 + x131
         + x143 + x144 + x149 <= 1
 clq138: x9 + x11 + x23 + x33 + x34 + x38 + x53 + x58 + x63 + x73 + x74 + x80
         + x82 + x89 + x90 + x93 + x105 + x109 + x112 + x121 + x128 + x138
         + x144 + x146 + x148 <= 1
 clq139: x13 + x20 + x27 + x32 + x36 + x37 + x40 + x53 + x54 + x68 + x71 + x77
         + x81 + x87 + x93 + x95 + x100 + x118 + x125 + x131 + x135 + x149
         + x150 <= 1
 clq140: x2 + x5 + x8 + x12 + x21 + x23 + x29 + x48 + x50 + x54 + x56 + x67
         + x82 + x92 + x96 + x101 + x107 + x114 + x117 + x124 + x136 + x137
         + x139 + x140 <= 1
 clq141: x5 + x6 + x9 + x12 + x15 + x19 + x22 + x27 + x28 + x33 + x34 + x36
         + x38 + x62 + x76 + x79 + x94 + x97 + x98 + x104 + x111 + x113 + x119
         + x130 + x137 + x149 + x150 <= 1
 clq142: x2 + x4 + x5 + x10 + x12 + x20 + x22 + x29 + x32 + x33 + x39 + x41
         + x51 + x54 + x111 + x115 + x118 + x121 + x123 + x131 + x139 + x147
         + x149 <= 1
 clq143: x3 + x5 + x17 + x20 + x24 + x31 + x32 + x33 + x38 + x48 + x53 + x61
         + x71 + x74 + x79 + x80 + x82 + x89 + x90 + x105 + x109 + x112 + x114
         + x140 + x141 + x146 <= 1
 clq144: x3 + x15 + x26 + x28 + x32 + x38 + x41 + x43 + x49 + x53 + x61 + x74
         + x79 + x83 + x85 + x100 + x104 + x106 + x112 + x113 + x120 + x123
         + x144 <= 1
 clq145: x12 + x13 + x23 + x29 + x30 + x38 + x40 + x53 + x60 + x61 + x64 + x66
         + x72 + x87 + x96 + x103 + x104 + x105 + x107 + x109 + x114 + x122
         + x140 + x148 <= 1
 clq146: x12 + x22 + x27 + x30 + x32 + x33 + x34 + x38 + x49 + x53 + x54 + x63
         + x64 + x65 + x81 + x82 + x85 + x87 + x93 + x96 + x102 + x113 + x117
         + x128 + x140 + x147 + x148 <= 1
 clq147: x8 + x16 + x26 + x35 + x36 + x38 + x44 + x60 + x66 + x69 + x76 + x81
         + x91 + x96 + x104 + x121 + x125 + x127 + x133 + x136 + x141 + x144
         + x145 + x148 <= 1
 clq148: x8 + x9 + x12 + x23 + x30 + x31 + x35 + x38 + x43 + x65 + x66 + x67
         + x79 + x80 + x83 + x85 + x87 + x93 + x100 + x103 + x111 + x114 + x124
         + x133 + x137 + x146 <= 1
 clq149: x3 + x10 + x20 + x24 + x25 + x31 + x34 + x43 + x45 + x46 + x48 + x50
         + x59 + x70 + x78 + x79 + x80 + x82 + x89 + x99 + x100 + x101 + x109
         + x132 + x133 + x139 + x146 <= 1
 clq150: x3 + x7 + x15 + x19 + x26 + x30 + x31 + x34 + x41 + x44 + x46 + x47
         + x49 + x55 + x59 + x60 + x69 + x86 + x89 + x92 + x97 + x108 + x112
         + x113 + x148 <= 1
 clq151: x7 + x19 + x20 + x21 + x35 + x42 + x44 + x45 + x51 + x58 + x62 + x65
         + x67 + x68 + x69 + x78 + x94 + x95 + x106 + x108 + x118 + x129 + x132
         + x136 + x140 + x146 + x150 <= 1
 clq152: x5 + x16 + x17 + x24 + x25 + x29 + x40 + x47 + x50 + x51 + x55 + x64
         + x66 + x68 + x71 + x74 + x77 + x81 + x84 + x89 + x92 + x98 + x107
         + x108 + x138 + x145 <= 1
Bounds
 0 <= x1 <= 1
 0 <= x2 <= 1
 0 <= x3 <= 1
 0 <= x4 <= 1
 0 <= x5 <= 1
 0 <= x6 <= 1
 0 <= x7 <= 1
 0 <= x8 <= 1
 0 <= x9 <= 1
 0 <= x10 <= 1
 0 <= x11 <= 1
 0 <= x12 <= 1
 0 <= x13 <= 1
 0 <= x14 <= 1
 0 <= x15 <= 1
 0 <= x16 <= 1
 0 <= x17 <= 1
 0 <= x18 <= 1
 0 <= x19 <= 1
 0 <= x20 <= 1
 0 <= x21 <= 1
 0 <= x22 <= 1
 0 <= x23 <= 1
 0 <= x24 <= 1
 0 <= x25 <= 1
 0 <= x26 <= 1
 0 <= x27 <= 1
 0 <= x28 <= 1
 0 <= x29 <= 1
 0 <= x30 <= 1
 0 <= x31 <= 1
 0 <= x32 <= 1
 0 <= x33 <= 1
 0 <= x34 <= 1
 0 <= x35 <= 1
 0 <= x36 <= 1
 0 <= x37 <= 1
 0 <= x38 <= 1
 0 <= x39 <= 1
 0 <= x40 <= 1
 0 <= x41 <= 1
 0 <= x42 <= 1
 0 <= x43 <= 1
 0 <= x44 <= 1
 0 <= x45 <= 1
 0 <= x46 <= 1
 0 <= x47 <= 1
 0 <= x48 <= 1
 0 <= x49 <= 1
 0 <= x50 <= 1
 0 <= x51 <= 1
 0 <= x52 <= 1
 0 <= x53 <= 1
 0 <= x54 <= 1
 0 <= x55 <= 1
 0 <= x56 <= 1
 0 <= x57 <= 1
 0 <= x58 <= 1
 0 <= x59 <= 1
 0 <= x60 <= 1
 0 <= x61 <= 1
 0 <= x62 <= 1
 0 <= x63 <= 1
 0 <= x64 <= 1
 0 <= x65 <= 1
 0 <= x66 <= 1
 0 <= x67 <= 1
 0 <= x68 <= 1
 0 <= x69 <= 1
 0 <= x70 <= 1
 0 <= x71 <= 1
 0 <= x72 <= 1
 0 <= x73 <= 1
 0 <= x74 <= 1
 0 <= x75 <= 1
 0 <= x76 <= 1
 0 <= x77 <= 1
 0 <= x78 <= 1
 0 <= x79 <= 1
 0 <= x80 <= 1
 0 <= x81 <= 1
 0 <= x82 <= 1
 0 <= x83 <= 1
 0 <= x84 <= 1
 0 <= x85 <= 1
 0 <= x86 <= 1
 0 <= x87 <= 1
 0 <= x88 <= 1
 0 <= x89 <= 1
 0 <= x90 <= 1
 0 <= x91 <= 1
 0 <= x92 <= 1
 0 <= x93 <= 1
 0 <= x94 <= 1
 0 <= x95 <= 1
 0 <= x96 <= 1
 0 <= x97 <= 1
 0 <= x98 <= 1
 0 <= x99 <= 1
 0 <= x100 <= 1
 0 <= x101 <= 1
 0 <= x102 <= 1
 0 <= x103 <= 1
 0 <= x104 <= 1
 0 <= x105 <= 1
 0 <= x106 <= 1
 0 <= x107 <= 1
 0 <= x108 <= 1
 0 <= x109 <= 1
 0 <= x110 <= 1
 0 <= x111 <= 1
 0 <= x112 <= 1
 0 <= x113 <= 1
 0 <= x114 <= 1
 0 <= x115 <= 1
 0 <= x116 <= 1
 0 <= x117 <= 1
 0 <= x118 <= 1
 0 <= x119 <= 1
 0 <= x120 <= 1
 0 <= x121 <= 1
 0 <= x122 <= 1
 0 <= x123 <= 1
 0 <= x124 <= 1
 0 <= x125 <= 1
 0 <= x126 <= 1
 0 <= x127 <= 1
 0 <= x128 <= 1
 0 <= x129 <= 1
 0 <= x130 <= 1
 0 <= x131 <= 1
 0 <= x132 <= 1
 0 <= x133 <= 1
 0 <= x134 <= 1
 0 <= x135 <= 1
 0 <= x136 <= 1
 0 <= x137 <= 1
 0 <= x138 <= 1
 0 <= x139 <= 1
 0 <= x140 <= 1
 0 <= x141 <= 1
 0 <= x142 <= 1
 0 <= x143 <= 1
 0 <= x144 <= 1
 0 <= x145 <= 1
 0 <= x146 <= 1
 0 <= x147 <= 1
 0 <= x148 <= 1
 0 <= x149 <= 1
 0 <= x150 <= 1
Binaries
 x1  x2  x3  x4  x5  x6  x7  x8  x9  x10  x11  x12  x13  x14  x15  x16  x17 
 x18  x19  x20  x21  x22  x23  x24  x25  x26  x27  x28  x29  x30  x31  x32 
 x33  x34  x35  x36  x37  x38  x39  x40  x41  x42  x43  x44  x45  x46  x47 
 x48  x49  x50  x51  x52  x53  x54  x55  x56  x57  x58  x59  x60  x61  x62 
 x63  x64  x65  x66  x67  x68  x69  x70  x71  x72  x73  x74  x75  x76  x77 
 x78  x79  x80  x81  x82  x83  x84  x85  x86  x87  x88  x89  x90  x91  x92 
 x93  x94  x95  x96  x97  x98  x99  x100  x101  x102  x103  x104  x105  x106 
 x107  x108  x109  x110  x111  x112  x113  x114  x115  x116  x117  x118  x119 
 x120  x121  x122  x123  x124  x125  x126  x127  x128  x129  x130  x131  x132 
 x133  x134  x135  x136  x137  x138  x139  x140  x141  x142  x143  x144  x145 
 x146  x147  x148  x149  x150 
End
